111-12
1.0
        6.0946998596         0.0000000000         0.0000000000
       -3.0473499298         5.2781649069         0.0000000000
        0.0000000000         0.0000000000        28.6847991943
   Cu    O    H
   24   13    2
Direct
     0.131940007         0.055560000         0.021690000 F F F 
     0.798609972         0.388889998         0.108429998 T T T 
     0.465279996         0.722220004         0.195170000 T T T 
     0.131940007         0.055560000         0.281910002 T T T 
     0.798609972         0.388889998         0.368649989 T T T 
     0.465279996         0.722220004         0.455390006 T T T 
     0.631940007         0.055560000         0.021690000 F F F 
     0.298610002         0.388889998         0.108429998 T T T 
     0.965279996         0.722220004         0.195170000 T T T 
     0.631940007         0.055560000         0.281910002 T T T 
     0.298610002         0.388889998         0.368649989 T T T 
     0.965279996         0.722220004         0.455390006 T T T 
     0.631940007         0.555559993         0.021690000 F F F 
     0.298610002         0.888890028         0.108429998 T T T 
     0.965279996         0.222220004         0.195170000 T T T 
     0.631940007         0.555559993         0.281910002 T T T 
     0.298610002         0.888890028         0.368649989 T T T 
     0.965279996         0.222220004         0.455390006 T T T 
     0.131940007         0.555559993         0.021690000 F F F 
     0.798609972         0.888890028         0.108429998 T T T 
     0.465279996         0.222220004         0.195170000 T T T 
     0.131940007         0.555559993         0.281910002 T T T 
     0.798609972         0.888890028         0.368649989 T T T 
     0.465279996         0.222220004         0.455390006 T T T 
     0.798609972         0.388889998         0.043370001 T T T 
     0.465279996         0.722220004         0.130109996 T T T 
     0.131940007         0.055560000         0.216849998 T T T 
     0.798609972         0.388889998         0.303590000 T T T 
     0.465279996         0.722220004         0.390329987 T T T 
     0.131940007         0.055560000         0.477079988 T T T 
     0.465279996         0.722220004         0.000000000 T T T 
     0.131940007         0.055560000         0.086740002 T T T 
     0.798609972         0.388889998         0.173480004 T T T 
     0.465279996         0.722220004         0.260219991 T T T 
     0.131940007         0.055560000         0.346960008 T T T 
     0.798609972         0.388889998         0.433699995 T T T 
     0.467150003         0.732560039         0.521809995 T T T 
     0.307700008         0.670819998         0.538339972 T T T 
     0.596029997         0.826230049         0.545229971 T T T 
