POSCAR\(1\1\1)
1.0
        5.2609000206         0.0000000000         0.0000000000
        2.6304500103         4.5560730646         0.0000000000
        0.0000000000         0.0000000000        25.7387008667
   Cu   Au
   18    6
Direct
     0.166669995     0.166669995     0.000000000
     0.666670024     0.166669995     0.000000000
     0.166669995     0.666670024     0.000000000
     0.833329976     0.333330005     0.083439998
     0.333330005     0.833329976     0.083439998
     0.833329976     0.833329976     0.083439998
     0.500000000     0.000000000     0.166889995
     0.000000000     0.500000000     0.166889995
     0.500000000     0.500000000     0.166889995
     0.166669995     0.166669995     0.250330001
     0.666670024     0.166669995     0.250330001
     0.166669995     0.666670024     0.250330001
     0.833329976     0.333330005     0.333779991
     0.333330005     0.833329976     0.333779991
     0.833329976     0.833329976     0.333779991
     0.500000000     0.000000000     0.417219996
     0.000000000     0.500000000     0.417219996
     0.500000000     0.500000000     0.417219996
     0.666670024     0.666670024     0.000000000
     0.333330005     0.333330005     0.083439998
     0.000000000     0.000000000     0.166889995
     0.666670024     0.666670024     0.250330001
     0.333330005     0.333330005     0.333779991
     0.000000000     0.000000000     0.417219996
