POSCAR\(1\1\1)
1.0
        5.2609000206         0.0000000000         0.0000000000
        2.6304500103         4.5560730646         0.0000000000
        0.0000000000         0.0000000000        25.7387008667
   Cu   Au
   18    6
selective
Direct
     0.166669995     0.166669995     0.000000000 F F F 
     0.666670024     0.166669995     0.000000000 F F F 
     0.166669995     0.666670024     0.000000000 F F F 
     0.833329976     0.333330005     0.083439998 F F F 
     0.333330005     0.833329976     0.083439998 F F F 
     0.833329976     0.833329976     0.083439998 F F F 
     0.500000000     0.000000000     0.166889995 T T T 
     0.000000000     0.500000000     0.166889995 T T T 
     0.500000000     0.500000000     0.166889995 T T T 
     0.166669995     0.166669995     0.250330001 T T T 
     0.666670024     0.166669995     0.250330001 T T T 
     0.166669995     0.666670024     0.250330001 T T T 
     0.833329976     0.333330005     0.333779991 T T T 
     0.333330005     0.833329976     0.333779991 T T T 
     0.833329976     0.833329976     0.333779991 T T T 
     0.500000000     0.000000000     0.417219996 T T T 
     0.000000000     0.500000000     0.417219996 T T T 
     0.500000000     0.500000000     0.417219996 T T T 
     0.666670024     0.666670024     0.000000000 F F F 
     0.333330005     0.333330005     0.083439998 F F F 
     0.000000000     0.000000000     0.166889995 T T T 
     0.666670024     0.666670024     0.250330001 T T T 
     0.333330005     0.333330005     0.333779991 T T T 
     0.000000000     0.000000000     0.417219996 T T T 
